Route #1: 51 9 39
Route #2: 14 23 7 55
Route #3: 50 13 17 57 52 31 60 11
Route #4: 19 24 10 49 2 6 41 27
Route #5: 28 44 1 16 48 35 18
Route #6: 33 42 32 43 26 4 22 12
Route #7: 58 25 40 8 53 46 59
Route #8: 15 3 38
Route #9: 34 47 56 21 36 29 20
Route #10: 30 37 45 54 5
cost: 1162.2402682554452
